data/solutions/recovery/wellformed/moderate/flexible/wellformed_moderate_instance64/27.sol
Elapsed time: 15.14
Upper bound: 4861.0
Planning weighted value: 130571.0
C[0]=4861.0
C[1]=4861.0
C[2]=4861.0
C[3]=4861.0
C[4]=0.0
y[0]=1
y[1]=1
y[2]=3
y[3]=2
y[4]=1
y[5]=2
y[6]=2
y[7]=1
y[8]=1
y[9]=0
y[10]=0
y[11]=3
y[12]=1
y[13]=1
y[14]=2
y[15]=3
y[16]=1
y[17]=3
y[18]=0
y[19]=2
y[20]=0
y[21]=2
y[22]=2
y[23]=3
y[24]=0
y[25]=0
y[26]=3
y[27]=2
y[28]=1
y[29]=1
y[30]=1
y[31]=0
y[32]=3
y[33]=2
y[34]=1
y[35]=0
y[36]=3
y[37]=2
y[38]=3
y[39]=2
y[40]=0
