data/solutions/recovery/wellformed/moderate/flexible/wellformed_moderate_instance64/27.log

Log started (V12.6.3.0) Fri Apr 20 20:11:47 2018

New value for default parallel thread count: 1

Problem '/tmp/tmpXp1xQe.pyomo.lp' read.
Read time = 0.00 sec. (0.08 ticks)

Problem name         : /tmp/tmpXp1xQe.pyomo.lp
Objective sense      : Minimize
Variables            :     212  [Nneg: 1,  Binary: 205,  General Integer: 6]
Objective nonzeros   :       1
Linear constraints   :      94  [Less: 46,  Equal: 48]
  Nonzeros           :    5531
  RHS nonzeros       :      83

Variables            : Min LB: 0.000000         Max UB: 1.000000       
Objective nonzeros   : Min   : 1.000000         Max   : 1.000000       
Linear constraints   :
  Nonzeros           : Min   : 1.000000         Max   : 1963.000       
  RHS nonzeros       : Min   : 1.000000         Max   : 5.000000       
Tried aggregator 2 times.
MIP Presolve eliminated 45 rows and 56 columns.
Aggregator did 7 substitutions.
Reduced MIP has 42 rows, 149 columns, and 384 nonzeros.
Reduced MIP has 148 binaries, 1 generals, 0 SOSs, and 0 indicators.
Presolve time = 0.00 sec. (1.40 ticks)
Found incumbent of value 19444.000000 after 0.00 sec. (1.70 ticks)
Probing time = 0.00 sec. (0.12 ticks)
Cover probing fixed 0 vars, tightened 6 bounds.
Tried aggregator 1 time.
Reduced MIP has 42 rows, 149 columns, and 384 nonzeros.
Reduced MIP has 148 binaries, 1 generals, 0 SOSs, and 0 indicators.
Presolve time = 0.00 sec. (0.27 ticks)
Probing time = 0.00 sec. (0.08 ticks)
Clique table members: 37.
MIP emphasis: balance optimality and feasibility.
MIP search method: dynamic search.
Parallel mode: none, using 1 thread.
Root relaxation solution time = 0.00 sec. (0.12 ticks)

        Nodes                                         Cuts/
   Node  Left     Objective  IInf  Best Integer    Best Bound    ItCnt     Gap

*     0+    0                        19444.0000     1963.0000            89.90%
      0     0     4861.0000     6    19444.0000     4861.0000        7   75.00%
*     0+    0                         5478.0000     4861.0000            11.26%
      0     0     4861.0000     7     5478.0000       Cuts: 4       15   11.26%
*     0+    0                         5352.0000     4861.0000             9.17%
      0     0     4861.0000    10     5352.0000       Cuts: 7       24    9.17%
*     0+    0                         5208.0000     4861.0000             6.66%
*     0+    0                         5026.0000     4861.0000             3.28%
      0     2     4861.0000     7     5026.0000     4861.0000       24    3.28%
Elapsed time = 0.01 sec. (6.54 ticks, tree = 0.01 MB, solutions = 5)
*    30+   30                         4994.0000     4861.0000             2.66%
*    42    37      integral     0     4942.0000     4861.0000      128    1.64%
*    74    61      integral     0     4925.0000     4861.0000      179    1.30%
*    76    61      integral     0     4911.0000     4861.0000      182    1.02%
*   110+   92                         4885.0000     4861.0000             0.49%
*   136   112      integral     0     4879.0000     4861.0000      287    0.37%
*   180   143      integral     0     4874.0000     4861.0000      364    0.27%
*   345   264      integral     0     4872.0000     4861.0000      724    0.23%
*   445+  318                         4869.0000     4861.0000             0.16%
*  1033   641      integral     0     4868.0000     4861.0000     2416    0.14%
*  1736+  611                         4867.0000     4861.0000             0.12%
   2366   588     4861.0000     8     4867.0000     4861.0000     5184    0.12%
   2367   588     4861.0000     8     4867.0000     4861.0000     5185    0.12%
   2368   589     4861.0000     8     4867.0000     4861.0000     5186    0.12%
   2369   590     4861.0000     8     4867.0000     4861.0000     5187    0.12%
   2370   590     4861.0000     8     4867.0000     4861.0000     5188    0.12%
   2371   590     4861.0000     8     4867.0000     4861.0000     5189    0.12%
   2372   591     4861.0000     8     4867.0000     4861.0000     5190    0.12%
   2373   591     4861.0000     6     4867.0000     4861.0000     5194    0.12%
   2374   592     4861.0000     8     4867.0000     4861.0000     5195    0.12%
*  3236+  978                         4864.0000     4861.0000             0.06%
*  3336+ 1028                         4863.0000     4861.0000             0.04%
   8791  3605     4861.0000     6     4863.0000     4861.0000    18680    0.04%
Elapsed time = 1.29 sec. (960.21 ticks, tree = 1.04 MB, solutions = 18)
  20921  7197     4861.0000     8     4863.0000     4861.0000    46627    0.04%
  20922  7198     4861.0000     6     4863.0000     4861.0000    46628    0.04%
  20923  7199     4861.0000     8     4863.0000     4861.0000    46637    0.04%
  20924  7200     4861.0000     6     4863.0000     4861.0000    46640    0.04%
  20925  7201     4861.0000     6     4863.0000     4861.0000    46641    0.04%
  20926  7202     4861.0000     6     4863.0000     4861.0000    46642    0.04%
  20927  7201        cutoff           4863.0000     4861.0000    46645    0.04%
  20928  7200        cutoff           4863.0000     4861.0000    46648    0.04%
  20929  7199        cutoff           4863.0000     4861.0000    46650    0.04%
  20930  7198        cutoff           4863.0000     4861.0000    46657    0.04%
Elapsed time = 2.63 sec. (1914.40 ticks, tree = 2.09 MB, solutions = 18)
  37297 12910     4861.0000     6     4863.0000     4861.0000    82843    0.04%
  37298 12909    infeasible           4863.0000     4861.0000    82843    0.04%
  37299 12910     4861.0000     6     4863.0000     4861.0000    82844    0.04%
  37300 12911     4861.0000     6     4863.0000     4861.0000    82845    0.04%
  37301 12912     4861.0000     6     4863.0000     4861.0000    82846    0.04%
  37302 12913     4861.0000     6     4863.0000     4861.0000    82847    0.04%
  37303 12914     4861.0000     6     4863.0000     4861.0000    82848    0.04%
  37304 12915     4861.0000     6     4863.0000     4861.0000    82849    0.04%
  37305 12914        cutoff           4863.0000     4861.0000    82853    0.04%
  37306 12915     4861.0000     6     4863.0000     4861.0000    82854    0.04%
Elapsed time = 3.88 sec. (2868.48 ticks, tree = 3.81 MB, solutions = 18)
* 45813 12895      integral     0     4862.0000     4861.0000   102357    0.02%
  51405 14234     4861.0000     8     4862.0000     4861.0000   115016    0.02%
  51406 14235     4861.0000     7     4862.0000     4861.0000   115017    0.02%
  51407 14236     4861.0000     8     4862.0000     4861.0000   115024    0.02%
  51408 14235    infeasible           4862.0000     4861.0000   115028    0.02%
  51409 14236     4861.0000     7     4862.0000     4861.0000   115032    0.02%
  51410 14235    infeasible           4862.0000     4861.0000   115034    0.02%
  51411 14234    infeasible           4862.0000     4861.0000   115035    0.02%
  51412 14235     4861.0000     6     4862.0000     4861.0000   115037    0.02%
  51413 14236     4861.0000     6     4862.0000     4861.0000   115038    0.02%
  51414 14237     4861.0000     6     4862.0000     4861.0000   115040    0.02%
Elapsed time = 5.13 sec. (3822.58 ticks, tree = 4.17 MB, solutions = 19)
  67780 18640     4861.0000     5     4862.0000     4861.0000   152031    0.02%
  67781 18641     4861.0000     6     4862.0000     4861.0000   152033    0.02%
  67782 18642     4861.0000     6     4862.0000     4861.0000   152034    0.02%
  67783 18643     4861.0000     6     4862.0000     4861.0000   152035    0.02%
  67784 18644     4861.0000     6     4862.0000     4861.0000   152036    0.02%
  67785 18645     4861.0000     6     4862.0000     4861.0000   152037    0.02%
  67786 18646     4861.0000     6     4862.0000     4861.0000   152038    0.02%
  67787 18646     4861.0000     6     4862.0000     4861.0000   152041    0.02%
  67788 18645    infeasible           4862.0000     4861.0000   152043    0.02%
  67789 18646     4861.0000     6     4862.0000     4861.0000   152044    0.02%
Elapsed time = 6.36 sec. (4776.89 ticks, tree = 5.85 MB, solutions = 19)
  82922 23199     4861.0000     6     4862.0000     4861.0000   187790    0.02%
  82923 23200     4861.0000     6     4862.0000     4861.0000   187791    0.02%
  82924 23201     4861.0000     5     4862.0000     4861.0000   187792    0.02%
  82925 23202     4861.0000     8     4862.0000     4861.0000   187794    0.02%
  82926 23203     4861.0000     8     4862.0000     4861.0000   187795    0.02%
  82927 23204     4861.0000     8     4862.0000     4861.0000   187796    0.02%
  82928 23205     4861.0000     8     4862.0000     4861.0000   187797    0.02%
  82929 23206     4861.0000     8     4862.0000     4861.0000   187798    0.02%
  82930 23207     4861.0000     6     4862.0000     4861.0000   187799    0.02%
  82931 23208     4861.0000     6     4862.0000     4861.0000   187800    0.02%
Elapsed time = 7.59 sec. (5730.93 ticks, tree = 7.03 MB, solutions = 19)
  96687 25837    infeasible           4862.0000     4861.0000   220661    0.02%
  96688 25836    infeasible           4862.0000     4861.0000   220662    0.02%
  96689 25835    infeasible           4862.0000     4861.0000   220662    0.02%
  96690 25836     4861.0000     8     4862.0000     4861.0000   220665    0.02%
  96691 25837     4861.0000     8     4862.0000     4861.0000   220666    0.02%
  96692 25838     4861.0000     8     4862.0000     4861.0000   220667    0.02%
  96693 25839     4861.0000     8     4862.0000     4861.0000   220668    0.02%
  96694 25838    infeasible           4862.0000     4861.0000   220672    0.02%
  96695 25839     4861.0000     6     4862.0000     4861.0000   220675    0.02%
  96696 25840     4861.0000     6     4862.0000     4861.0000   220678    0.02%
Elapsed time = 8.83 sec. (6685.17 ticks, tree = 7.71 MB, solutions = 19)
 111631 29406    infeasible           4862.0000     4861.0000   254163    0.02%
 111632 29407     4861.0000     6     4862.0000     4861.0000   254165    0.02%
 111633 29406    infeasible           4862.0000     4861.0000   254172    0.02%
 111634 29407     4861.0000     8     4862.0000     4861.0000   254174    0.02%
 111635 29406    infeasible           4862.0000     4861.0000   254174    0.02%
 111636 29405    infeasible           4862.0000     4861.0000   254174    0.02%
 111637 29404    infeasible           4862.0000     4861.0000   254177    0.02%
 111638 29403    infeasible           4862.0000     4861.0000   254182    0.02%
 111639 29402    infeasible           4862.0000     4861.0000   254182    0.02%
 111640 29403     4861.0000     6     4862.0000     4861.0000   254183    0.02%
Elapsed time = 10.07 sec. (7639.79 ticks, tree = 8.63 MB, solutions = 19)
 125992 31933    infeasible           4862.0000     4861.0000   287781    0.02%
 125993 31934     4861.0000     6     4862.0000     4861.0000   287784    0.02%
 125994 31935     4861.0000     6     4862.0000     4861.0000   287785    0.02%
 125995 31936     4861.0000     6     4862.0000     4861.0000   287786    0.02%
 125996 31937     4861.0000     6     4862.0000     4861.0000   287787    0.02%
 125997 31936    infeasible           4862.0000     4861.0000   287788    0.02%
 125998 31937     4861.0000     6     4862.0000     4861.0000   287789    0.02%
 125999 31938     4861.0000     6     4862.0000     4861.0000   287790    0.02%
 126000 31939     4861.0000     6     4862.0000     4861.0000   287791    0.02%
 126001 31940     4861.0000     6     4862.0000     4861.0000   287792    0.02%
Elapsed time = 11.33 sec. (8594.15 ticks, tree = 9.34 MB, solutions = 19)
 142326 36926     4861.0000     8     4862.0000     4861.0000   324568    0.02%
 142327 36927     4861.0000     8     4862.0000     4861.0000   324570    0.02%
 142328 36928     4861.0000     8     4862.0000     4861.0000   324571    0.02%
 142329 36929     4861.0000     7     4862.0000     4861.0000   324572    0.02%
 142330 36930     4861.0000     8     4862.0000     4861.0000   324573    0.02%
 142331 36931     4861.0000     8     4862.0000     4861.0000   324574    0.02%
 142332 36930    infeasible           4862.0000     4861.0000   324576    0.02%
 142333 36929    infeasible           4862.0000     4861.0000   324580    0.02%
 142334 36930     4861.0000     6     4862.0000     4861.0000   324583    0.02%
*175042     2      integral     0     4861.0000     4861.0000   396037    0.00%

Cover cuts applied:  1
Mixed integer rounding cuts applied:  1

Root node processing (before b&c):
  Real time             =    0.01 sec. (6.61 ticks)
Sequential b&c:
  Real time             =   15.12 sec. (11493.99 ticks)
                          ------------
Total (root+branch&cut) =   15.13 sec. (11500.59 ticks)

Solution pool: 20 solutions saved.

MIP - Integer optimal solution:  Objective =  4.8610000000e+03
Solution time =   15.13 sec.  Iterations = 396037  Nodes = 175043
Deterministic time = 11500.59 ticks  (760.31 ticks/sec)


Incumbent solution written to file '/tmp/tmpd2M82L.cplex.sol'.
